Results/Experiment 1 Results/Existing Benchmark/RES_60/i-60-75-4.txt
solutions: 0 nodes: 1  modelTime: 120  solveTime: 21  totalTime: 151  modelSize: 7854  readTime: 10 matchingSize: 0
