Results/Experiment 2 Results/Existing Benchmark/i-60-75-4.lp
clingo version 5.4.0
Reading from tempSRTISolver.lp ...
Solving...
UNSATISFIABLE

Models       : 0
Calls        : 1
Time         : 3.000s (Solving: 0.20s 1st Model: 0.00s Unsat: 0.20s)
CPU Time     : 2.996s
